Minimize
  - 20 y_0 - 24 y_1 - 16 y_2 - 7 y_3 - 18 y_5 - 16 y_6 - 7 y_7 - 17 y_8
   - 5 y_9 - 7 y_10 - 10 y_11 - 21 y_12 - 9 y_13 - 16 y_14 - 9 y_15
   - 20 y_16 - 13 y_17 - 13 y_18 - 15 y_19 + 263 Constant
Subject To
 c_0: y_8 = 1
 c_1_0: y_0 >= 1
 c_1_1: y_1 >= 1
 c_1_2: y_2 >= 1
 c_1_3: y_3 + y_10 >= 1
 c_1_4: y_4 >= 1
 c_1_5: y_5 + y_14 >= 1
 c_1_6: y_6 + y_14 + y_19 >= 1
 c_1_7: y_7 >= 1
 c_1_8: y_8 >= 1
 c_1_9: y_9 >= 1
 c_1_10: y_3 + y_10 + y_13 >= 1
 c_1_11: y_11 >= 1
 c_1_12: y_12 >= 1
 c_1_13: y_10 + y_13 >= 1
 c_1_14: y_5 + y_6 + y_14 + y_19 >= 1
 c_1_15: y_15 >= 1
 c_1_16: y_16 >= 1
 c_1_17: y_17 + y_18 >= 1
 c_1_18: y_17 + y_18 >= 1
 c_1_19: y_6 + y_14 + y_19 >= 1
Bounds
 Constant = 1
Binaries
 y_0 y_1 y_2 y_3 y_4 y_5 y_6 y_7 y_8 y_9 y_10 y_11 y_12 y_13 y_14 y_15 y_16
 y_17 y_18 y_19
End
